68
1 0 6
2 0 2
2 1 5
3 0 6
3 1 6
3 2 7
4 0 1
4 1 3
4 2 5
4 3 1
5 0 8
5 1 7
5 2 8
5 3 3
5 4 8
6 0 6
6 1 6
6 2 8
6 3 1
6 4 3
6 5 1
7 0 4
7 1 7
7 2 5
7 3 5
7 4 2
7 5 1
7 6 7
8 0 8
8 1 5
8 2 5
8 3 2
8 4 3
8 5 6
8 6 6
8 7 4
9 0 8
9 1 2
9 2 6
9 3 5
9 4 6
9 5 7
9 6 3
9 7 6
9 8 6
10 0 1
10 1 1
10 2 5
10 3 1
10 4 6
10 5 1
10 6 8
10 7 3
10 8 4
10 9 1
11 0 7
11 1 5
11 2 2
11 3 7
11 4 1
11 5 3
11 6 7
11 7 2
11 8 8
11 9 4
11 10 3
12 0 5
12 1 8
12 2 1
12 3 3
12 4 5
12 5 5
12 6 7
12 7 7
12 8 4
12 9 5
12 10 5
12 11 1
13 0 7
13 1 3
13 2 2
13 3 1
13 4 7
13 5 3
13 6 6
13 7 3
13 8 8
13 9 4
13 10 6
13 11 2
13 12 4
14 0 7
14 1 8
14 2 5
14 3 3
14 4 6
14 5 4
14 6 8
14 7 6
14 8 3
14 9 2
14 10 4
14 11 5
14 12 5
14 13 8
15 0 8
15 1 5
15 2 4
15 3 8
15 4 2
15 5 3
15 6 8
15 7 1
15 8 8
15 9 1
15 10 4
15 11 3
15 12 1
15 13 8
15 14 3
16 0 2
16 1 4
16 2 6
16 3 6
16 4 6
16 5 4
16 6 7
16 7 6
16 8 2
16 9 2
16 10 6
16 11 3
16 12 4
16 13 5
16 14 5
16 15 7
17 0 5
17 1 5
17 2 3
17 3 1
17 4 6
17 5 3
17 6 5
17 7 3
17 8 7
17 9 1
17 10 2
17 11 1
17 12 4
17 13 3
17 14 3
17 15 8
17 16 6
18 0 4
18 1 5
18 2 8
18 3 8
18 4 4
18 5 2
18 6 5
18 7 5
18 8 4
18 9 5
18 10 1
18 11 7
18 12 7
18 13 1
18 14 5
18 15 1
18 16 6
18 17 2
19 0 4
19 1 1
19 2 2
19 3 6
19 4 2
19 5 8
19 6 6
19 7 7
19 8 3
19 9 4
19 10 3
19 11 8
19 12 8
19 13 7
19 14 7
19 15 2
19 16 2
19 17 2
19 18 2
20 0 1
20 1 7
20 2 2
20 3 2
20 4 6
20 5 3
20 6 7
20 7 4
20 8 8
20 9 6
20 10 4
20 11 5
20 12 1
20 13 4
20 14 5
20 15 4
20 16 1
20 17 1
20 18 7
20 19 5
21 0 5
21 1 3
21 2 3
21 3 3
21 4 1
21 5 2
21 6 3
21 7 5
21 8 5
21 9 7
21 10 3
21 11 2
21 12 3
21 13 1
21 14 7
21 15 4
21 16 5
21 17 6
21 18 1
21 19 3
21 20 5
22 0 4
22 1 2
22 2 8
22 3 4
22 4 5
22 5 5
22 6 3
22 7 4
22 8 1
22 9 8
22 10 7
22 11 5
22 12 4
22 13 8
22 14 4
22 15 5
22 16 2
22 17 8
22 18 5
22 19 5
22 20 8
22 21 1
23 0 8
23 1 8
23 2 5
23 3 1
23 4 7
23 5 8
23 6 3
23 7 3
23 8 7
23 9 7
23 10 3
23 11 2
23 12 6
23 13 8
23 14 8
23 15 7
23 16 7
23 17 3
23 18 1
23 19 8
23 20 1
23 21 8
23 22 2
24 0 1
24 1 6
24 2 2
24 3 6
24 4 3
24 5 3
24 6 8
24 7 4
24 8 4
24 9 7
24 10 8
24 11 6
24 12 6
24 13 5
24 14 4
24 15 3
24 16 1
24 17 4
24 18 5
24 19 5
24 20 8
24 21 7
24 22 4
24 23 7
25 0 7
25 1 4
25 2 3
25 3 1
25 4 5
25 5 8
25 6 5
25 7 7
25 8 7
25 9 5
25 10 4
25 11 2
25 12 6
25 13 6
25 14 1
25 15 1
25 16 8
25 17 6
25 18 3
25 19 1
25 20 6
25 21 2
25 22 4
25 23 6
25 24 8
26 0 6
26 1 1
26 2 1
26 3 4
26 4 3
26 5 1
26 6 2
26 7 1
26 8 1
26 9 8
26 10 7
26 11 2
26 12 3
26 13 2
26 14 3
26 15 5
26 16 1
26 17 3
26 18 1
26 19 2
26 20 7
26 21 7
26 22 6
26 23 3
26 24 4
26 25 1
27 0 4
27 1 4
27 2 6
27 3 6
27 4 4
27 5 2
27 6 5
27 7 3
27 8 1
27 9 8
27 10 2
27 11 7
27 12 7
27 13 6
27 14 2
27 15 5
27 16 3
27 17 1
27 18 1
27 19 7
27 20 3
27 21 1
27 22 6
27 23 3
27 24 8
27 25 6
27 26 7
28 0 8
28 1 2
28 2 7
28 3 4
28 4 2
28 5 4
28 6 2
28 7 3
28 8 8
28 9 2
28 10 7
28 11 8
28 12 6
28 13 1
28 14 5
28 15 2
28 16 8
28 17 2
28 18 5
28 19 3
28 20 2
28 21 4
28 22 4
28 23 1
28 24 4
28 25 7
28 26 1
28 27 4
29 0 6
29 1 4
29 2 2
29 3 1
29 4 8
29 5 1
29 6 3
29 7 2
29 8 4
29 9 6
29 10 3
29 11 3
29 12 3
29 13 4
29 14 5
29 15 2
29 16 1
29 17 2
29 18 4
29 19 8
29 20 2
29 21 2
29 22 1
29 23 2
29 24 3
29 25 5
29 26 6
29 27 8
29 28 1
30 0 1
30 1 4
30 2 4
30 3 4
30 4 3
30 5 3
30 6 4
30 7 4
30 8 6
30 9 2
30 10 1
30 11 2
30 12 6
30 13 8
30 14 8
30 15 7
30 16 4
30 17 3
30 18 1
30 19 4
30 20 1
30 21 7
30 22 5
30 23 4
30 24 3
30 25 2
30 26 6
30 27 2
30 28 6
30 29 7
31 0 1
31 1 1
31 2 2
31 3 8
31 4 2
31 5 4
31 6 8
31 7 1
31 8 4
31 9 4
31 10 3
31 11 4
31 12 2
31 13 6
31 14 3
31 15 2
31 16 7
31 17 3
31 18 4
31 19 6
31 20 8
31 21 1
31 22 2
31 23 3
31 24 7
31 25 8
31 26 3
31 27 1
31 28 5
31 29 1
31 30 2
32 0 7
32 1 5
32 2 4
32 3 7
32 4 3
32 5 8
32 6 8
32 7 6
32 8 6
32 9 5
32 10 7
32 11 4
32 12 1
32 13 4
32 14 4
32 15 5
32 16 5
32 17 7
32 18 7
32 19 6
32 20 5
32 21 2
32 22 3
32 23 2
32 24 4
32 25 8
32 26 6
32 27 2
32 28 3
32 29 6
32 30 8
32 31 7
33 0 1
33 1 2
33 2 1
33 3 3
33 4 1
33 5 3
33 6 2
33 7 3
33 8 2
33 9 4
33 10 1
33 11 1
33 12 5
33 13 2
33 14 5
33 15 5
33 16 4
33 17 1
33 18 8
33 19 2
33 20 7
33 21 6
33 22 4
33 23 3
33 24 2
33 25 5
33 26 1
33 27 4
33 28 6
33 29 4
33 30 7
33 31 4
33 32 6
34 0 8
34 1 4
34 2 6
34 3 2
34 4 4
34 5 3
34 6 5
34 7 2
34 8 8
34 9 5
34 10 8
34 11 5
34 12 5
34 13 5
34 14 1
34 15 6
34 16 3
34 17 7
34 18 8
34 19 6
34 20 1
34 21 8
34 22 2
34 23 3
34 24 5
34 25 8
34 26 1
34 27 2
34 28 1
34 29 7
34 30 2
34 31 2
34 32 3
34 33 7
35 0 1
35 1 5
35 2 6
35 3 4
35 4 3
35 5 7
35 6 7
35 7 7
35 8 6
35 9 6
35 10 7
35 11 8
35 12 8
35 13 4
35 14 5
35 15 3
35 16 3
35 17 5
35 18 3
35 19 5
35 20 1
35 21 5
35 22 8
35 23 4
35 24 5
35 25 6
35 26 4
35 27 2
35 28 1
35 29 5
35 30 2
35 31 7
35 32 3
35 33 1
35 34 6
36 0 3
36 1 1
36 2 2
36 3 8
36 4 8
36 5 2
36 6 5
36 7 4
36 8 5
36 9 7
36 10 4
36 11 6
36 12 7
36 13 1
36 14 4
36 15 1
36 16 3
36 17 2
36 18 4
36 19 8
36 20 7
36 21 1
36 22 8
36 23 7
36 24 2
36 25 2
36 26 1
36 27 5
36 28 7
36 29 1
36 30 6
36 31 2
36 32 3
36 33 3
36 34 2
36 35 5
37 0 5
37 1 5
37 2 6
37 3 5
37 4 4
37 5 6
37 6 4
37 7 6
37 8 1
37 9 8
37 10 2
37 11 8
37 12 4
37 13 7
37 14 2
37 15 5
37 16 6
37 17 7
37 18 5
37 19 1
37 20 6
37 21 3
37 22 7
37 23 4
37 24 8
37 25 6
37 26 8
37 27 8
37 28 6
37 29 2
37 30 3
37 31 8
37 32 2
37 33 8
37 34 3
37 35 8
37 36 3
38 0 3
38 1 3
38 2 1
38 3 8
38 4 5
38 5 7
38 6 2
38 7 7
38 8 8
38 9 5
38 10 8
38 11 4
38 12 2
38 13 8
38 14 2
38 15 5
38 16 4
38 17 5
38 18 8
38 19 3
38 20 1
38 21 2
38 22 5
38 23 6
38 24 4
38 25 7
38 26 6
38 27 5
38 28 4
38 29 3
38 30 8
38 31 7
38 32 1
38 33 1
38 34 3
38 35 5
38 36 1
38 37 5
39 0 7
39 1 1
39 2 8
39 3 8
39 4 7
39 5 3
39 6 7
39 7 1
39 8 5
39 9 1
39 10 5
39 11 6
39 12 8
39 13 5
39 14 4
39 15 4
39 16 5
39 17 5
39 18 4
39 19 2
39 20 4
39 21 7
39 22 5
39 23 3
39 24 2
39 25 6
39 26 3
39 27 5
39 28 3
39 29 5
39 30 6
39 31 5
39 32 1
39 33 5
39 34 8
39 35 2
39 36 1
39 37 6
39 38 3
40 0 4
40 1 6
40 2 2
40 3 6
40 4 5
40 5 4
40 6 7
40 7 6
40 8 1
40 9 3
40 10 2
40 11 7
40 12 3
40 13 5
40 14 4
40 15 1
40 16 3
40 17 7
40 18 8
40 19 1
40 20 7
40 21 6
40 22 7
40 23 5
40 24 1
40 25 2
40 26 4
40 27 7
40 28 3
40 29 5
40 30 4
40 31 3
40 32 1
40 33 1
40 34 6
40 35 3
40 36 4
40 37 8
40 38 5
40 39 5
41 0 1
41 1 5
41 2 2
41 3 4
41 4 6
41 5 3
41 6 2
41 7 7
41 8 6
41 9 1
41 10 3
41 11 1
41 12 2
41 13 1
41 14 7
41 15 2
41 16 8
41 17 1
41 18 6
41 19 8
41 20 7
41 21 2
41 22 1
41 23 1
41 24 4
41 25 1
41 26 1
41 27 1
41 28 1
41 29 5
41 30 1
41 31 5
41 32 6
41 33 7
41 34 8
41 35 8
41 36 5
41 37 6
41 38 6
41 39 8
41 40 2
42 0 4
42 1 3
42 2 7
42 3 1
42 4 2
42 5 5
42 6 5
42 7 4
42 8 4
42 9 6
42 10 8
42 11 2
42 12 8
42 13 8
42 14 6
42 15 8
42 16 1
42 17 5
42 18 1
42 19 2
42 20 8
42 21 5
42 22 6
42 23 3
42 24 1
42 25 2
42 26 5
42 27 5
42 28 4
42 29 6
42 30 3
42 31 7
42 32 4
42 33 4
42 34 2
42 35 1
42 36 1
42 37 7
42 38 7
42 39 7
42 40 7
42 41 3
43 0 3
43 1 8
43 2 4
43 3 4
43 4 1
43 5 4
43 6 2
43 7 5
43 8 6
43 9 6
43 10 3
43 11 4
43 12 3
43 13 6
43 14 4
43 15 1
43 16 6
43 17 2
43 18 7
43 19 8
43 20 4
43 21 6
43 22 6
43 23 6
43 24 2
43 25 7
43 26 7
43 27 8
43 28 5
43 29 3
43 30 2
43 31 6
43 32 1
43 33 5
43 34 4
43 35 5
43 36 4
43 37 7
43 38 3
43 39 4
43 40 8
43 41 2
43 42 2
44 0 3
44 1 6
44 2 3
44 3 7
44 4 2
44 5 6
44 6 8
44 7 2
44 8 7
44 9 1
44 10 6
44 11 5
44 12 5
44 13 6
44 14 5
44 15 5
44 16 7
44 17 1
44 18 4
44 19 1
44 20 4
44 21 8
44 22 5
44 23 7
44 24 6
44 25 5
44 26 8
44 27 5
44 28 5
44 29 5
44 30 5
44 31 2
44 32 6
44 33 6
44 34 7
44 35 5
44 36 3
44 37 2
44 38 2
44 39 6
44 40 5
44 41 1
44 42 1
44 43 1
45 0 2
45 1 2
45 2 6
45 3 4
45 4 8
45 5 1
45 6 5
45 7 2
45 8 3
45 9 5
45 10 8
45 11 4
45 12 8
45 13 5
45 14 3
45 15 8
45 16 3
45 17 6
45 18 7
45 19 3
45 20 1
45 21 8
45 22 7
45 23 7
45 24 2
45 25 7
45 26 8
45 27 6
45 28 8
45 29 5
45 30 5
45 31 2
45 32 7
45 33 7
45 34 2
45 35 6
45 36 1
45 37 7
45 38 7
45 39 8
45 40 1
45 41 4
45 42 7
45 43 4
45 44 8
46 0 8
46 1 6
46 2 5
46 3 7
46 4 4
46 5 2
46 6 5
46 7 6
46 8 1
46 9 3
46 10 1
46 11 8
46 12 5
46 13 6
46 14 4
46 15 4
46 16 4
46 17 8
46 18 3
46 19 1
46 20 4
46 21 3
46 22 7
46 23 1
46 24 1
46 25 8
46 26 3
46 27 4
46 28 1
46 29 3
46 30 3
46 31 2
46 32 3
46 33 1
46 34 1
46 35 1
46 36 5
46 37 1
46 38 6
46 39 4
46 40 6
46 41 5
46 42 4
46 43 3
46 44 6
46 45 7
47 0 5
47 1 6
47 2 4
47 3 3
47 4 3
47 5 8
47 6 7
47 7 5
47 8 4
47 9 2
47 10 2
47 11 4
47 12 1
47 13 3
47 14 6
47 15 5
47 16 7
47 17 8
47 18 2
47 19 3
47 20 1
47 21 4
47 22 6
47 23 6
47 24 7
47 25 1
47 26 1
47 27 7
47 28 1
47 29 1
47 30 7
47 31 7
47 32 4
47 33 8
47 34 3
47 35 4
47 36 6
47 37 2
47 38 6
47 39 8
47 40 5
47 41 6
47 42 4
47 43 3
47 44 4
47 45 8
47 46 2
48 0 7
48 1 1
48 2 3
48 3 3
48 4 7
48 5 4
48 6 1
48 7 7
48 8 3
48 9 3
48 10 5
48 11 8
48 12 2
48 13 4
48 14 7
48 15 3
48 16 7
48 17 5
48 18 4
48 19 3
48 20 7
48 21 2
48 22 7
48 23 5
48 24 6
48 25 6
48 26 7
48 27 5
48 28 1
48 29 1
48 30 7
48 31 2
48 32 6
48 33 1
48 34 2
48 35 4
48 36 3
48 37 8
48 38 4
48 39 3
48 40 7
48 41 5
48 42 4
48 43 3
48 44 1
48 45 3
48 46 6
48 47 6
49 0 8
49 1 8
49 2 8
49 3 4
49 4 1
49 5 3
49 6 6
49 7 3
49 8 4
49 9 6
49 10 5
49 11 5
49 12 5
49 13 7
49 14 5
49 15 6
49 16 1
49 17 1
49 18 2
49 19 5
49 20 6
49 21 5
49 22 3
49 23 8
49 24 6
49 25 5
49 26 7
49 27 8
49 28 1
49 29 2
49 30 3
49 31 4
49 32 6
49 33 5
49 34 7
49 35 7
49 36 8
49 37 4
49 38 2
49 39 8
49 40 7
49 41 8
49 42 7
49 43 2
49 44 6
49 45 7
49 46 6
49 47 1
49 48 8
50 0 7
50 1 1
50 2 1
50 3 4
50 4 6
50 5 6
50 6 1
50 7 3
50 8 5
50 9 4
50 10 1
50 11 2
50 12 5
50 13 1
50 14 5
50 15 3
50 16 8
50 17 7
50 18 6
50 19 7
50 20 4
50 21 6
50 22 2
50 23 6
50 24 7
50 25 2
50 26 8
50 27 6
50 28 5
50 29 8
50 30 2
50 31 2
50 32 2
50 33 3
50 34 5
50 35 8
50 36 6
50 37 1
50 38 5
50 39 3
50 40 3
50 41 8
50 42 7
50 43 3
50 44 8
50 45 5
50 46 6
50 47 5
50 48 7
50 49 2
51 0 8
51 1 6
51 2 4
51 3 3
51 4 7
51 5 4
51 6 7
51 7 8
51 8 1
51 9 1
51 10 2
51 11 5
51 12 8
51 13 6
51 14 7
51 15 6
51 16 2
51 17 5
51 18 6
51 19 6
51 20 8
51 21 7
51 22 2
51 23 4
51 24 1
51 25 4
51 26 4
51 27 5
51 28 6
51 29 6
51 30 7
51 31 4
51 32 1
51 33 7
51 34 8
51 35 2
51 36 3
51 37 7
51 38 4
51 39 6
51 40 4
51 41 6
51 42 1
51 43 8
51 44 4
51 45 2
51 46 7
51 47 1
51 48 5
51 49 7
51 50 1
52 0 6
52 1 5
52 2 3
52 3 3
52 4 3
52 5 4
52 6 6
52 7 7
52 8 4
52 9 1
52 10 6
52 11 5
52 12 3
52 13 4
52 14 3
52 15 8
52 16 4
52 17 8
52 18 1
52 19 3
52 20 6
52 21 1
52 22 1
52 23 2
52 24 5
52 25 8
52 26 3
52 27 6
52 28 6
52 29 8
52 30 7
52 31 6
52 32 4
52 33 4
52 34 5
52 35 3
52 36 6
52 37 4
52 38 6
52 39 4
52 40 2
52 41 2
52 42 4
52 43 1
52 44 4
52 45 7
52 46 2
52 47 3
52 48 2
52 49 4
52 50 3
52 51 6
53 0 2
53 1 7
53 2 7
53 3 6
53 4 1
53 5 3
53 6 1
53 7 6
53 8 5
53 9 2
53 10 7
53 11 2
53 12 6
53 13 6
53 14 1
53 15 5
53 16 5
53 17 1
53 18 2
53 19 1
53 20 2
53 21 8
53 22 4
53 23 3
53 24 6
53 25 4
53 26 8
53 27 8
53 28 8
53 29 8
53 30 7
53 31 7
53 32 7
53 33 5
53 34 6
53 35 1
53 36 1
53 37 6
53 38 2
53 39 1
53 40 8
53 41 7
53 42 4
53 43 8
53 44 3
53 45 7
53 46 7
53 47 7
53 48 4
53 49 8
53 50 1
53 51 8
53 52 5
54 0 7
54 1 4
54 2 5
54 3 5
54 4 7
54 5 7
54 6 2
54 7 1
54 8 3
54 9 8
54 10 1
54 11 5
54 12 4
54 13 7
54 14 3
54 15 8
54 16 6
54 17 6
54 18 6
54 19 6
54 20 2
54 21 8
54 22 7
54 23 5
54 24 2
54 25 4
54 26 1
54 27 5
54 28 5
54 29 1
54 30 4
54 31 2
54 32 7
54 33 8
54 34 7
54 35 8
54 36 8
54 37 6
54 38 6
54 39 4
54 40 4
54 41 8
54 42 8
54 43 2
54 44 6
54 45 1
54 46 1
54 47 1
54 48 5
54 49 3
54 50 3
54 51 6
54 52 7
54 53 1
55 0 5
55 1 8
55 2 6
55 3 6
55 4 4
55 5 5
55 6 5
55 7 5
55 8 2
55 9 8
55 10 3
55 11 5
55 12 1
55 13 5
55 14 6
55 15 6
55 16 3
55 17 5
55 18 5
55 19 5
55 20 1
55 21 4
55 22 5
55 23 3
55 24 5
55 25 2
55 26 2
55 27 5
55 28 8
55 29 1
55 30 7
55 31 7
55 32 1
55 33 7
55 34 3
55 35 7
55 36 7
55 37 7
55 38 2
55 39 8
55 40 8
55 41 1
55 42 7
55 43 2
55 44 8
55 45 5
55 46 3
55 47 4
55 48 2
55 49 8
55 50 7
55 51 5
55 52 5
55 53 1
55 54 3
56 0 1
56 1 6
56 2 1
56 3 1
56 4 6
56 5 3
56 6 2
56 7 3
56 8 8
56 9 2
56 10 6
56 11 6
56 12 6
56 13 3
56 14 3
56 15 1
56 16 1
56 17 3
56 18 4
56 19 1
56 20 7
56 21 8
56 22 2
56 23 6
56 24 5
56 25 3
56 26 7
56 27 7
56 28 3
56 29 6
56 30 3
56 31 8
56 32 1
56 33 2
56 34 4
56 35 7
56 36 5
56 37 2
56 38 2
56 39 7
56 40 7
56 41 3
56 42 2
56 43 5
56 44 1
56 45 6
56 46 1
56 47 5
56 48 8
56 49 8
56 50 4
56 51 8
56 52 4
56 53 7
56 54 4
56 55 7
57 0 2
57 1 2
57 2 1
57 3 4
57 4 5
57 5 1
57 6 3
57 7 2
57 8 1
57 9 5
57 10 7
57 11 6
57 12 2
57 13 8
57 14 2
57 15 6
57 16 2
57 17 5
57 18 2
57 19 8
57 20 7
57 21 3
57 22 5
57 23 5
57 24 4
57 25 3
57 26 7
57 27 3
57 28 2
57 29 1
57 30 2
57 31 3
57 32 3
57 33 7
57 34 1
57 35 3
57 36 4
57 37 3
57 38 5
57 39 4
57 40 7
57 41 4
57 42 8
57 43 5
57 44 5
57 45 1
57 46 2
57 47 6
57 48 8
57 49 1
57 50 5
57 51 4
57 52 4
57 53 3
57 54 5
57 55 8
57 56 7
58 0 4
58 1 5
58 2 6
58 3 7
58 4 5
58 5 1
58 6 7
58 7 6
58 8 1
58 9 1
58 10 7
58 11 6
58 12 8
58 13 4
58 14 5
58 15 1
58 16 2
58 17 7
58 18 1
58 19 5
58 20 1
58 21 6
58 22 2
58 23 5
58 24 8
58 25 1
58 26 2
58 27 5
58 28 5
58 29 7
58 30 3
58 31 8
58 32 1
58 33 6
58 34 7
58 35 8
58 36 4
58 37 4
58 38 2
58 39 4
58 40 5
58 41 2
58 42 6
58 43 8
58 44 4
58 45 2
58 46 8
58 47 5
58 48 3
58 49 2
58 50 3
58 51 4
58 52 3
58 53 1
58 54 3
58 55 6
58 56 1
58 57 5
59 0 7
59 1 1
59 2 4
59 3 8
59 4 1
59 5 4
59 6 4
59 7 4
59 8 7
59 9 7
59 10 7
59 11 2
59 12 8
59 13 8
59 14 5
59 15 3
59 16 7
59 17 2
59 18 3
59 19 7
59 20 4
59 21 4
59 22 5
59 23 5
59 24 6
59 25 3
59 26 5
59 27 7
59 28 8
59 29 4
59 30 4
59 31 2
59 32 7
59 33 8
59 34 1
59 35 1
59 36 6
59 37 8
59 38 3
59 39 1
59 40 6
59 41 4
59 42 3
59 43 5
59 44 1
59 45 5
59 46 8
59 47 2
59 48 1
59 49 3
59 50 2
59 51 2
59 52 1
59 53 7
59 54 1
59 55 6
59 56 2
59 57 6
59 58 6
60 0 4
60 1 7
60 2 7
60 3 5
60 4 3
60 5 3
60 6 1
60 7 7
60 8 2
60 9 8
60 10 3
60 11 6
60 12 5
60 13 4
60 14 7
60 15 2
60 16 4
60 17 6
60 18 3
60 19 8
60 20 8
60 21 7
60 22 3
60 23 1
60 24 3
60 25 7
60 26 3
60 27 5
60 28 6
60 29 4
60 30 7
60 31 1
60 32 2
60 33 6
60 34 8
60 35 7
60 36 4
60 37 2
60 38 3
60 39 3
60 40 6
60 41 8
60 42 3
60 43 7
60 44 8
60 45 2
60 46 8
60 47 7
60 48 6
60 49 4
60 50 3
60 51 1
60 52 5
60 53 6
60 54 8
60 55 7
60 56 3
60 57 1
60 58 8
60 59 2
61 0 7
61 1 1
61 2 8
61 3 7
61 4 8
61 5 4
61 6 8
61 7 6
61 8 6
61 9 4
61 10 3
61 11 5
61 12 5
61 13 2
61 14 8
61 15 1
61 16 5
61 17 7
61 18 6
61 19 4
61 20 6
61 21 8
61 22 5
61 23 2
61 24 8
61 25 7
61 26 7
61 27 1
61 28 3
61 29 8
61 30 1
61 31 5
61 32 6
61 33 7
61 34 5
61 35 3
61 36 4
61 37 4
61 38 7
61 39 6
61 40 5
61 41 7
61 42 5
61 43 4
61 44 2
61 45 3
61 46 3
61 47 1
61 48 7
61 49 7
61 50 3
61 51 8
61 52 4
61 53 5
61 54 1
61 55 3
61 56 7
61 57 6
61 58 8
61 59 6
61 60 1
62 0 7
62 1 5
62 2 1
62 3 6
62 4 1
62 5 4
62 6 1
62 7 7
62 8 2
62 9 1
62 10 3
62 11 8
62 12 2
62 13 1
62 14 2
62 15 8
62 16 8
62 17 3
62 18 8
62 19 3
62 20 5
62 21 7
62 22 7
62 23 5
62 24 2
62 25 2
62 26 4
62 27 8
62 28 5
62 29 3
62 30 8
62 31 1
62 32 3
62 33 2
62 34 2
62 35 6
62 36 5
62 37 5
62 38 8
62 39 6
62 40 6
62 41 3
62 42 3
62 43 6
62 44 4
62 45 3
62 46 6
62 47 7
62 48 8
62 49 3
62 50 3
62 51 2
62 52 6
62 53 7
62 54 2
62 55 8
62 56 2
62 57 3
62 58 4
62 59 3
62 60 1
62 61 2
63 0 8
63 1 6
63 2 2
63 3 8
63 4 5
63 5 7
63 6 3
63 7 4
63 8 8
63 9 1
63 10 2
63 11 4
63 12 8
63 13 8
63 14 8
63 15 3
63 16 1
63 17 5
63 18 7
63 19 3
63 20 1
63 21 7
63 22 5
63 23 4
63 24 4
63 25 7
63 26 6
63 27 7
63 28 5
63 29 5
63 30 2
63 31 2
63 32 2
63 33 4
63 34 6
63 35 8
63 36 4
63 37 3
63 38 4
63 39 7
63 40 5
63 41 2
63 42 8
63 43 7
63 44 1
63 45 8
63 46 8
63 47 3
63 48 5
63 49 1
63 50 1
63 51 1
63 52 1
63 53 8
63 54 6
63 55 5
63 56 6
63 57 7
63 58 5
63 59 2
63 60 2
63 61 2
63 62 6
64 0 2
64 1 6
64 2 6
64 3 5
64 4 1
64 5 3
64 6 2
64 7 8
64 8 2
64 9 8
64 10 4
64 11 1
64 12 2
64 13 7
64 14 4
64 15 3
64 16 1
64 17 8
64 18 8
64 19 7
64 20 8
64 21 5
64 22 3
64 23 1
64 24 1
64 25 7
64 26 3
64 27 3
64 28 6
64 29 7
64 30 4
64 31 2
64 32 5
64 33 7
64 34 8
64 35 8
64 36 1
64 37 3
64 38 7
64 39 2
64 40 4
64 41 4
64 42 5
64 43 3
64 44 8
64 45 4
64 46 3
64 47 2
64 48 2
64 49 6
64 50 8
64 51 7
64 52 4
64 53 3
64 54 7
64 55 5
64 56 3
64 57 3
64 58 3
64 59 6
64 60 1
64 61 2
64 62 3
64 63 6
65 0 3
65 1 4
65 2 7
65 3 3
65 4 2
65 5 3
65 6 2
65 7 2
65 8 3
65 9 3
65 10 6
65 11 4
65 12 1
65 13 3
65 14 3
65 15 2
65 16 4
65 17 3
65 18 1
65 19 4
65 20 6
65 21 7
65 22 2
65 23 4
65 24 2
65 25 4
65 26 8
65 27 2
65 28 2
65 29 1
65 30 6
65 31 3
65 32 1
65 33 2
65 34 4
65 35 3
65 36 7
65 37 7
65 38 6
65 39 6
65 40 8
65 41 5
65 42 5
65 43 3
65 44 2
65 45 3
65 46 4
65 47 5
65 48 5
65 49 4
65 50 4
65 51 3
65 52 1
65 53 3
65 54 3
65 55 6
65 56 1
65 57 6
65 58 8
65 59 1
65 60 1
65 61 1
65 62 6
65 63 3
65 64 6
66 0 1
66 1 6
66 2 8
66 3 3
66 4 6
66 5 8
66 6 2
66 7 8
66 8 5
66 9 2
66 10 7
66 11 5
66 12 2
66 13 3
66 14 1
66 15 3
66 16 1
66 17 3
66 18 5
66 19 6
66 20 6
66 21 3
66 22 5
66 23 6
66 24 3
66 25 3
66 26 4
66 27 4
66 28 5
66 29 4
66 30 3
66 31 4
66 32 8
66 33 7
66 34 1
66 35 8
66 36 2
66 37 7
66 38 8
66 39 1
66 40 6
66 41 4
66 42 6
66 43 7
66 44 6
66 45 3
66 46 2
66 47 1
66 48 4
66 49 5
66 50 6
66 51 3
66 52 7
66 53 4
66 54 5
66 55 8
66 56 2
66 57 1
66 58 7
66 59 3
66 60 7
66 61 7
66 62 6
66 63 8
66 64 7
66 65 4
67 0 4
67 1 8
67 2 3
67 3 4
67 4 3
67 5 4
67 6 6
67 7 8
67 8 4
67 9 6
67 10 8
67 11 6
67 12 4
67 13 8
67 14 7
67 15 3
67 16 7
67 17 4
67 18 5
67 19 4
67 20 3
67 21 1
67 22 3
67 23 4
67 24 4
67 25 8
67 26 3
67 27 5
67 28 4
67 29 6
67 30 8
67 31 4
67 32 8
67 33 1
67 34 7
67 35 7
67 36 4
67 37 3
67 38 6
67 39 5
67 40 4
67 41 3
67 42 2
67 43 4
67 44 6
67 45 5
67 46 4
67 47 2
67 48 7
67 49 2
67 50 6
67 51 3
67 52 1
67 53 2
67 54 7
67 55 4
67 56 6
67 57 7
67 58 6
67 59 3
67 60 1
67 61 6
67 62 8
67 63 1
67 64 8
67 65 2
67 66 7
